187
2151
135
0 3
0 7
0 13
0 15
0 37
0 94
0 95
0 98
0 103
0 123
1 5
1 10
1 12
1 14
1 17
1 21
1 35
1 38
1 39
1 41
1 42
1 72
1 74
1 86
1 100
1 110
1 122
1 173
2 4
2 6
2 8
2 9
2 11
2 16
2 18
2 24
2 25
2 27
2 29
2 30
2 34
2 45
2 47
2 62
2 63
2 67
2 70
2 83
2 84
2 85
2 87
2 88
2 90
2 92
2 93
2 96
2 97
2 99
2 101
2 115
2 124
2 153
2 162
2 166
2 178
3 7
3 13
3 15
3 22
3 23
3 26
3 28
3 32
3 37
3 39
3 41
3 42
3 74
3 94
3 95
3 98
3 103
3 123
4 6
4 8
4 9
4 11
4 16
4 18
4 24
4 25
4 27
4 29
4 30
4 34
4 45
4 47
4 83
4 84
4 85
4 87
4 88
4 90
4 92
4 93
4 96
4 97
4 99
4 101
4 115
4 153
4 166
4 178
5 10
5 12
5 14
5 17
5 21
5 31
5 33
5 40
5 43
5 44
5 46
5 48
5 49
5 50
5 86
5 100
6 8
6 9
6 11
6 16
6 18
6 24
6 25
6 27
6 29
6 30
6 34
6 45
6 47
6 96
6 97
6 99
6 101
6 115
6 153
6 166
6 178
7 13
7 15
7 22
7 23
7 26
7 28
7 32
7 37
7 39
7 41
7 42
7 44
7 54
7 55
7 56
7 65
7 74
7 77
7 94
7 95
7 98
7 103
7 112
7 123
7 127
7 138
7 152
7 179
8 9
8 11
8 16
8 18
8 24
8 25
8 27
8 29
8 30
8 34
8 45
8 47
9 11
9 16
9 18
9 24
9 25
9 27
9 29
9 30
9 34
9 45
9 47
9 89
9 91
9 102
9 104
9 105
9 106
10 12
10 14
10 17
10 21
10 31
10 33
10 40
10 43
10 44
10 46
10 48
10 49
10 50
10 56
10 66
10 68
10 78
10 86
10 88
10 100
10 117
10 123
10 129
10 130
10 131
11 16
11 18
11 24
11 25
11 27
11 29
11 30
11 34
11 45
11 47
11 57
11 89
11 91
11 102
11 104
11 105
11 106
11 108
11 110
11 114
11 118
11 142
11 143
11 156
11 168
11 182
11 183
12 14
12 17
12 21
12 31
12 33
12 40
12 43
12 44
12 46
12 48
12 49
12 50
12 56
12 66
12 68
12 78
12 86
12 88
12 100
12 117
13 15
13 22
13 23
13 26
13 28
13 32
13 37
13 39
13 41
13 42
13 57
13 58
13 59
13 60
13 67
13 70
13 74
13 90
13 92
13 94
13 95
13 98
13 103
13 123
14 17
14 21
14 31
14 33
14 40
14 43
14 44
14 46
14 48
14 49
14 50
14 59
14 69
14 75
14 79
14 80
14 81
14 86
14 93
14 100
14 106
14 128
14 169
14 182
14 185
15 22
15 23
15 26
15 28
15 32
15 37
15 39
15 41
15 42
15 57
15 58
15 59
15 60
15 67
15 70
15 74
15 90
15 92
15 94
15 95
15 98
15 103
15 123
15 132
15 136
15 139
15 140
15 141
15 142
15 144
16 18
16 24
16 25
16 27
16 29
16 30
16 34
16 45
16 47
16 89
16 91
16 102
16 104
16 105
16 106
16 113
16 117
16 120
16 130
17 21
17 31
17 33
17 40
17 43
17 44
17 46
17 48
17 49
17 50
17 69
17 75
17 79
17 80
17 81
17 86
17 93
17 100
17 128
18 24
18 25
18 27
18 29
18 30
18 34
18 45
18 47
18 89
18 91
18 102
18 104
18 105
18 106
18 113
18 117
18 120
18 130
18 161
18 162
18 163
18 164
18 165
18 169
19 21
19 24
19 25
19 27
19 29
19 30
19 34
19 35
19 51
19 147
20 31
20 33
20 53
20 62
20 83
20 133
20 134
20 149
20 174
21 24
21 25
21 27
21 29
21 30
21 34
21 35
21 51
21 86
21 100
21 147
22 23
22 26
22 28
22 32
22 39
22 41
22 42
22 74
22 95
22 98
22 103
23 26
23 28
23 32
23 39
23 41
23 42
23 54
23 55
23 56
23 74
23 95
23 98
23 103
23 112
23 138
23 152
24 25
24 27
24 29
24 30
24 34
24 35
24 45
24 47
24 51
24 83
24 84
24 85
24 87
24 88
24 90
24 92
24 93
24 96
24 97
24 99
24 101
24 115
24 147
24 153
24 166
24 178
25 27
25 29
25 30
25 34
25 35
25 45
25 47
25 51
25 96
25 97
25 99
25 101
25 115
25 147
25 153
25 166
25 178
26 28
26 32
26 39
26 41
26 42
26 44
26 54
26 55
26 56
26 65
26 74
26 77
26 95
26 98
26 103
26 112
26 127
26 138
26 152
26 179
27 29
27 30
27 34
27 35
27 45
27 47
27 51
27 147
28 32
28 39
28 41
28 42
28 57
28 58
28 59
28 60
28 67
28 70
28 74
28 90
28 92
28 95
28 98
28 103
28 132
28 136
28 139
28 140
28 141
28 142
28 144
28 146
28 153
28 154
28 155
28 156
28 182
29 30
29 34
29 35
29 45
29 47
29 51
29 89
29 91
29 102
29 104
29 105
29 106
29 147
30 34
30 35
30 45
30 47
30 51
30 57
30 89
30 91
30 102
30 104
30 105
30 106
30 108
30 110
30 114
30 118
30 142
30 143
30 147
30 156
30 168
30 182
30 183
31 33
31 40
31 43
31 44
31 46
31 48
31 49
31 50
31 53
31 56
31 62
31 66
31 68
31 78
31 83
31 86
31 88
31 100
31 117
31 133
31 134
31 149
31 174
32 39
32 41
32 42
32 57
32 58
32 59
32 60
32 67
32 70
32 74
32 90
32 92
32 95
32 98
32 103
33 40
33 43
33 44
33 46
33 48
33 49
33 50
33 53
33 62
33 69
33 75
33 79
33 80
33 81
33 83
33 86
33 93
33 100
33 128
33 133
33 134
33 141
33 143
33 149
33 172
33 174
33 178
33 180
33 181
33 183
33 186
34 35
34 45
34 47
34 51
34 89
34 91
34 102
34 104
34 105
34 106
34 113
34 117
34 120
34 130
34 147
35 38
35 39
35 41
35 42
35 51
35 72
35 74
35 110
35 122
35 147
35 173
36 37
36 45
36 47
36 61
36 71
36 108
36 121
36 133
36 171
37 45
37 47
37 61
37 71
37 94
37 95
37 98
37 103
37 108
37 121
37 123
37 133
37 171
38 39
38 41
38 42
38 72
38 74
38 110
38 122
38 173
39 41
39 42
39 72
39 74
39 95
39 98
39 103
39 110
39 122
39 173
40 43
40 44
40 46
40 48
40 49
40 50
40 76
40 77
40 86
40 100
40 113
40 124
40 125
40 127
40 162
40 164
40 179
41 42
41 54
41 55
41 56
41 72
41 74
41 95
41 98
41 103
41 110
41 112
41 122
41 138
41 152
41 173
42 54
42 55
42 56
42 61
42 64
42 66
42 68
42 69
42 72
42 74
42 84
42 87
42 88
42 93
42 95
42 98
42 99
42 103
42 110
42 112
42 122
42 138
42 152
42 173
43 44
43 46
43 48
43 49
43 50
43 86
43 100
44 46
44 48
44 49
44 50
44 54
44 55
44 65
44 76
44 77
44 86
44 100
44 113
44 124
44 125
44 127
44 138
44 152
44 162
44 164
44 179
45 47
45 61
45 71
45 108
45 121
45 133
45 171
46 48
46 49
46 50
46 56
46 66
46 68
46 78
46 86
46 88
46 100
46 117
46 123
46 129
46 130
46 131
47 61
47 71
47 89
47 91
47 102
47 104
47 105
47 106
47 108
47 121
47 133
47 171
48 49
48 50
48 56
48 66
48 68
48 78
48 86
48 88
48 100
48 117
49 50
49 59
49 69
49 75
49 79
49 80
49 81
49 86
49 93
49 100
49 106
49 128
49 169
49 182
49 185
50 69
50 75
50 79
50 80
50 81
50 86
50 93
50 100
50 128
51 52
51 53
51 62
51 83
51 109
51 133
51 134
51 147
51 148
51 149
51 174
52 53
52 62
52 83
52 109
52 133
52 134
52 147
52 148
52 149
52 174
53 62
53 83
53 109
53 133
53 134
53 147
53 148
53 149
53 174
54 55
54 56
54 65
54 77
54 98
54 112
54 127
54 138
54 152
54 179
55 56
55 65
55 77
55 82
55 86
55 89
55 91
55 98
55 112
55 127
55 138
55 152
55 179
56 61
56 64
56 66
56 68
56 69
56 78
56 84
56 87
56 88
56 93
56 98
56 99
56 112
56 117
56 138
56 152
57 58
57 59
57 60
57 67
57 70
57 90
57 92
57 103
57 108
57 110
57 114
57 118
57 132
57 136
57 139
57 140
57 141
57 142
57 143
57 144
57 146
57 153
57 154
57 155
57 156
57 168
57 182
57 183
58 59
58 60
58 67
58 70
58 90
58 92
58 103
59 60
59 67
59 70
59 90
59 92
59 103
59 106
59 137
59 143
59 145
59 151
59 169
59 182
59 185
60 67
60 70
60 90
60 92
60 103
60 132
60 136
60 139
60 140
60 141
60 142
60 144
61 64
61 66
61 68
61 69
61 71
61 72
61 73
61 74
61 84
61 87
61 88
61 93
61 99
61 108
61 110
61 121
61 122
61 133
61 161
61 171
61 173
61 175
62 63
62 67
62 70
62 83
62 90
62 92
62 96
62 109
62 124
62 133
62 134
62 147
62 148
62 149
62 162
62 174
63 67
63 70
63 83
63 90
63 92
63 96
63 124
63 162
64 66
64 68
64 69
64 84
64 87
64 88
64 93
64 99
65 77
65 127
65 138
65 152
65 179
66 68
66 69
66 78
66 84
66 87
66 88
66 93
66 99
66 117
66 123
66 129
66 130
66 131
67 70
67 83
67 90
67 92
67 96
67 103
67 124
67 132
67 136
67 139
67 140
67 141
67 142
67 144
67 146
67 153
67 154
67 155
67 156
67 162
67 182
68 69
68 78
68 84
68 87
68 88
68 93
68 99
68 117
69 75
69 79
69 80
69 81
69 84
69 87
69 88
69 93
69 99
69 128
70 83
70 90
70 92
70 96
70 103
70 124
70 137
70 143
70 145
70 151
70 162
71 72
71 73
71 74
71 84
71 108
71 110
71 121
71 122
71 133
71 161
71 171
71 173
71 175
72 73
72 74
72 84
72 108
72 110
72 121
72 122
72 161
72 171
72 173
72 175
73 74
73 84
73 108
73 110
73 121
73 122
73 161
73 171
73 173
73 175
74 84
74 95
74 98
74 103
74 108
74 110
74 121
74 122
74 161
74 171
74 173
74 175
75 79
75 80
75 81
75 93
75 109
75 111
75 112
75 128
75 133
75 134
75 135
75 138
75 147
75 148
75 149
75 152
75 158
75 163
75 174
75 176
75 184
76 77
76 113
76 124
76 125
76 127
76 162
76 164
76 179
77 113
77 124
77 125
77 127
77 138
77 152
77 162
77 164
77 179
78 88
78 107
78 115
78 116
78 117
78 123
78 129
78 130
78 131
78 132
78 139
78 146
78 153
78 154
78 160
78 166
78 172
78 178
78 180
79 80
79 81
79 93
79 128
79 158
79 163
79 174
79 176
79 184
80 81
80 93
80 128
80 141
80 143
80 172
80 178
80 180
80 181
80 183
80 186
81 93
81 128
82 86
82 89
82 91
82 94
82 95
82 98
82 100
82 103
82 107
82 123
82 132
82 146
82 160
82 172
83 84
83 85
83 87
83 88
83 90
83 92
83 93
83 96
83 97
83 99
83 109
83 124
83 133
83 134
83 147
83 148
83 149
83 162
83 174
84 85
84 87
84 88
84 90
84 92
84 93
84 96
84 97
84 99
84 108
84 110
84 121
84 122
84 161
84 171
84 173
84 175
85 87
85 88
85 90
85 92
85 93
85 96
85 97
85 99
86 89
86 91
86 94
86 95
86 98
86 100
86 103
86 107
86 123
86 132
86 146
86 160
86 172
87 88
87 90
87 92
87 93
87 96
87 97
87 99
88 90
88 92
88 93
88 96
88 97
88 99
88 117
89 91
89 102
89 104
89 105
89 106
89 109
89 111
89 112
89 119
89 129
89 131
89 170
90 92
90 93
90 96
90 97
90 99
90 103
90 124
90 132
90 136
90 139
90 140
90 141
90 142
90 144
90 162
91 102
91 104
91 105
91 106
91 113
91 117
91 120
91 130
92 93
92 96
92 97
92 99
92 103
92 124
92 137
92 143
92 145
92 151
92 162
93 96
93 97
93 99
93 128
94 95
94 98
94 100
94 103
94 107
94 123
94 132
94 146
94 160
94 172
95 98
95 100
95 103
95 107
95 123
95 132
95 146
95 160
95 172
96 97
96 99
96 101
96 115
96 124
96 153
96 162
96 166
96 178
97 99
97 101
97 115
97 153
97 166
97 178
98 100
98 103
98 107
98 112
98 123
98 132
98 138
98 146
98 152
98 160
98 172
99 101
99 115
99 153
99 166
99 178
100 103
100 107
100 123
100 132
100 146
100 160
100 172
101 115
101 153
101 166
101 178
102 104
102 105
102 106
103 107
103 123
103 132
103 146
103 160
103 172
104 105
104 106
104 109
104 111
104 112
104 119
104 129
104 131
104 147
104 148
104 149
104 151
104 152
104 157
104 169
104 170
105 106
105 109
105 111
105 112
105 119
105 129
105 131
105 170
106 113
106 117
106 120
106 130
106 161
106 162
106 163
106 164
106 165
106 169
106 182
106 185
107 115
107 116
107 123
107 132
107 139
107 146
107 153
107 154
107 160
107 166
107 172
107 178
107 180
108 110
108 114
108 118
108 121
108 122
108 124
108 125
108 126
108 127
108 128
108 133
108 142
108 143
108 156
108 161
108 168
108 171
108 173
108 175
108 182
108 183
109 111
109 112
109 119
109 129
109 131
109 133
109 134
109 135
109 138
109 147
109 148
109 149
109 151
109 152
109 157
109 163
109 169
109 170
109 174
109 176
110 114
110 118
110 121
110 122
110 124
110 125
110 126
110 127
110 128
110 142
110 143
110 156
110 161
110 168
110 171
110 173
110 175
110 182
110 183
111 112
111 119
111 129
111 131
111 133
111 134
111 135
111 138
111 147
111 148
111 149
111 151
111 152
111 157
111 163
111 169
111 170
111 174
111 176
112 119
112 129
112 131
112 133
112 134
112 135
112 138
112 147
112 148
112 149
112 151
112 152
112 157
112 163
112 169
112 170
112 174
112 176
113 117
113 120
113 124
113 125
113 127
113 130
113 136
113 137
113 150
113 151
113 161
113 162
113 163
113 164
113 165
113 169
113 171
113 173
113 175
113 177
113 179
114 118
114 121
114 122
114 124
114 125
114 126
114 127
114 128
114 142
114 143
114 156
114 168
114 182
114 183
115 116
115 123
115 132
115 139
115 146
115 153
115 154
115 160
115 166
115 172
115 178
115 180
116 123
116 132
116 139
116 146
116 153
116 154
116 160
116 166
116 172
116 178
116 180
117 120
117 130
117 136
117 137
117 150
117 151
117 161
117 162
117 163
117 164
117 165
117 169
117 171
117 173
117 175
117 177
117 179
118 142
118 143
118 156
118 168
118 182
118 183
119 129
119 131
119 147
119 148
119 149
119 151
119 152
119 157
119 169
119 170
120 130
121 122
121 124
121 125
121 126
121 127
121 128
121 133
121 161
121 171
121 173
121 175
122 124
122 125
122 126
122 127
122 128
122 161
122 171
122 173
122 175
123 129
123 130
123 131
123 132
123 139
123 146
123 153
123 154
123 160
123 166
123 172
123 178
123 180
124 125
124 126
124 127
124 128
124 162
124 164
124 179
125 126
125 127
125 128
125 162
125 164
125 179
126 127
126 128
127 128
127 138
127 152
127 162
127 164
127 179
128 158
128 163
128 174
128 176
128 184
129 130
129 131
129 170
130 131
130 161
130 162
130 163
130 164
130 165
130 169
131 136
131 141
131 150
131 158
131 159
131 170
132 136
132 139
132 140
132 141
132 142
132 144
132 146
132 153
132 154
132 155
132 156
132 160
132 166
132 172
132 178
132 180
132 182
133 134
133 135
133 138
133 147
133 148
133 149
133 152
133 163
133 171
133 174
133 176
134 135
134 138
134 147
134 148
134 149
134 152
134 163
134 174
134 176
135 138
135 147
135 148
135 149
135 152
135 163
135 174
135 176
136 137
136 139
136 140
136 141
136 142
136 144
136 150
136 151
136 158
136 159
136 161
136 162
136 164
136 165
136 171
136 173
136 175
136 177
136 179
137 143
137 145
137 150
137 151
137 161
137 162
137 164
137 165
137 171
137 173
137 175
137 177
137 179
138 147
138 148
138 149
138 152
138 163
138 174
138 176
138 179
139 140
139 141
139 142
139 144
139 146
139 153
139 154
139 155
139 156
139 160
139 166
139 172
139 178
139 180
139 182
140 141
140 142
140 144
140 146
140 153
140 154
140 155
140 156
140 182
141 142
141 143
141 144
141 150
141 158
141 159
141 160
141 166
141 167
141 168
141 170
141 172
141 178
141 180
141 181
141 183
141 186
142 143
142 144
142 146
142 153
142 154
142 155
142 156
142 168
142 182
142 183
143 145
143 151
143 156
143 160
143 166
143 167
143 168
143 170
143 172
143 178
143 180
143 181
143 182
143 183
143 186
145 151
146 153
146 154
146 155
146 156
146 160
146 166
146 172
146 178
146 180
146 182
147 148
147 149
147 151
147 152
147 157
147 163
147 169
147 170
147 174
147 176
148 149
148 151
148 152
148 157
148 163
148 169
148 170
148 174
148 176
149 151
149 152
149 157
149 163
149 169
149 170
149 174
149 176
150 151
150 158
150 159
150 161
150 162
150 164
150 165
150 171
150 173
150 175
150 177
150 179
151 152
151 157
151 161
151 162
151 164
151 165
151 169
151 170
151 171
151 173
151 175
151 177
151 179
152 157
152 163
152 169
152 170
152 174
152 176
152 179
153 154
153 155
153 156
153 160
153 166
153 172
153 178
153 180
153 182
154 155
154 156
154 160
154 166
154 172
154 178
154 180
154 182
155 156
155 182
156 168
156 182
156 183
157 169
157 170
158 159
158 163
158 174
158 176
158 184
160 166
160 167
160 168
160 170
160 172
160 178
160 180
160 181
160 183
161 162
161 163
161 164
161 165
161 169
161 171
161 173
161 175
161 177
161 179
162 163
162 164
162 165
162 169
162 171
162 173
162 175
162 177
162 179
163 164
163 165
163 169
163 174
163 176
163 184
164 165
164 169
164 171
164 173
164 175
164 177
164 179
165 169
165 171
165 173
165 175
165 177
165 179
166 167
166 168
166 170
166 172
166 178
166 180
166 181
166 183
167 168
167 170
167 172
167 178
167 180
167 181
167 183
168 170
168 172
168 178
168 180
168 181
168 182
168 183
169 170
169 182
169 185
170 172
170 178
170 180
170 181
170 183
171 173
171 175
171 177
171 179
172 178
172 180
172 181
172 183
172 186
173 175
173 177
173 179
174 176
174 184
175 177
175 179
176 184
177 179
178 180
178 181
178 183
178 186
180 181
180 183
180 186
181 183
181 186
182 183
182 185
183 186
0 1
2 3
4
5
6 7
8
9 10
11 12
13
14 15
16
17 18
19
20 21
22
23 24
25 26
27
28 29
30 31
32
33 34
35 36
37 38
39
40 41
42 43
44
45
46 47
48
49
50
51
52
53
54
55
56 57
58
59 60
61
62
63
64
65
66 67
68
69 70
71
72
73
74 75
76
77
78
79
80
81
82
83 84
85
86 87
88
89 90
91
92 93
94
95 96
97 98
99 100
101
102
103 104
105 106
107 108
109 110
111
112 113
114
115
116
117 118
119
120
121
122 123
124
125
126
127
128
129
130 131
132 133
134
135
136 137
138
139
140 141
142 143
144
145
146 147
148
149
150 151
152 153
154
155
156
157 158
159
160
161
162 163
164
165
166
167
168
169 170
171 172
173
174 175
176
177
178 179
180
181
182 183
184
185
186
